
Gurobi 7.0.1 (win64, Python) logging started 04/08/17 14:34:33


Gurobi 7.0.1 (win64, Python) logging started 04/08/17 16:36:20


Gurobi 7.0.1 (win64, Python) logging started 04/09/17 15:06:41


Gurobi 7.0.1 (win64, Python) logging started 04/17/17 17:34:43


Gurobi 7.0.1 (win64, Python) logging started 04/18/17 16:54:14

Parameter OutputFlag unchanged
   Value: 1  Min: 0  Max: 1  Default: 1
Changed value of parameter TimeLimit to 120.0
   Prev: 1e+100  Min: 0.0  Max: 1e+100  Default: 1e+100
Parameter OutputFlag unchanged
   Value: 1  Min: 0  Max: 1  Default: 1
Changed value of parameter TimeLimit to 120.0
   Prev: 1e+100  Min: 0.0  Max: 1e+100  Default: 1e+100
Parameter TimeLimit unchanged
   Value: 120.0  Min: 0.0  Max: 1e+100  Default: 1e+100
Optimize a model with 15 rows, 37 columns and 124 nonzeros
Variable types: 0 continuous, 37 integer (34 binary)
Coefficient statistics:
  Matrix range     [1e+00, 4e+00]
  Objective range  [1e+00, 1e+00]
  Bounds range     [1e+00, 1e+00]
  RHS range        [1e+00, 1e+00]
Found heuristic solution: objective -0
Presolve removed 5 rows and 17 columns
Presolve time: 0.00s
Presolved: 10 rows, 20 columns, 60 nonzeros
Variable types: 0 continuous, 20 integer (19 binary)

Root relaxation: objective 3.250000e+00, 13 iterations, 0.00 seconds

    Nodes    |    Current Node    |     Objective Bounds      |     Work
 Expl Unexpl |  Obj  Depth IntInf | Incumbent    BestBd   Gap | It/Node Time

     0     0    3.25000    0    7   -0.00000    3.25000      -     -    0s
H    0     0                       2.0000000    3.25000  62.5%     -    0s
     0     0    3.00000    0    2    2.00000    3.00000  50.0%     -    0s

Cutting planes:
  Gomory: 1
  Cover: 1

Explored 0 nodes (35 simplex iterations) in 0.06 seconds
Thread count was 4 (of 4 available processors)

Solution count 2: 2 -0 
Pool objective bound 2

Optimal solution found (tolerance 1.00e-04)
Best objective 2.000000000000e+00, best bound 2.000000000000e+00, gap 0.0000%
Warning: variable name "z_mrsi 0 0 0 0" has a space
Warning: constraint name "Contrainte 1 : un marqueur max par slot 1 2" has a space
Warning: to let Gurobi read it back, use rlp format
Parameter OutputFlag unchanged
   Value: 1  Min: 0  Max: 1  Default: 1
Changed value of parameter TimeLimit to 120.0
   Prev: 1e+100  Min: 0.0  Max: 1e+100  Default: 1e+100
Parameter TimeLimit unchanged
   Value: 120.0  Min: 0.0  Max: 1e+100  Default: 1e+100
Optimize a model with 15 rows, 37 columns and 124 nonzeros
Variable types: 0 continuous, 37 integer (34 binary)
Coefficient statistics:
  Matrix range     [1e+00, 4e+00]
  Objective range  [1e+00, 1e+00]
  Bounds range     [1e+00, 1e+00]
  RHS range        [1e+00, 1e+00]
Found heuristic solution: objective -0
Presolve removed 5 rows and 17 columns
Presolve time: 0.00s
Presolved: 10 rows, 20 columns, 60 nonzeros
Variable types: 0 continuous, 20 integer (19 binary)

Root relaxation: objective 3.250000e+00, 13 iterations, 0.00 seconds

    Nodes    |    Current Node    |     Objective Bounds      |     Work
 Expl Unexpl |  Obj  Depth IntInf | Incumbent    BestBd   Gap | It/Node Time

     0     0    3.25000    0    7   -0.00000    3.25000      -     -    0s
H    0     0                       2.0000000    3.25000  62.5%     -    0s
     0     0    3.00000    0    2    2.00000    3.00000  50.0%     -    0s

Cutting planes:
  Gomory: 1
  Cover: 1

Explored 0 nodes (35 simplex iterations) in 0.06 seconds
Thread count was 4 (of 4 available processors)

Solution count 2: 2 -0 
Pool objective bound 2

Optimal solution found (tolerance 1.00e-04)
Best objective 2.000000000000e+00, best bound 2.000000000000e+00, gap 0.0000%
Warning: variable name "z_mrsi 0 0 0 0" has a space
Warning: constraint name "Contrainte 1 : un marqueur max par slot 1 2" has a space
Warning: to let Gurobi read it back, use rlp format
Parameter OutputFlag unchanged
   Value: 1  Min: 0  Max: 1  Default: 1
Changed value of parameter TimeLimit to 120.0
   Prev: 1e+100  Min: 0.0  Max: 1e+100  Default: 1e+100
Parameter TimeLimit unchanged
   Value: 120.0  Min: 0.0  Max: 1e+100  Default: 1e+100
Optimize a model with 20 rows, 73 columns and 298 nonzeros
Variable types: 0 continuous, 73 integer (70 binary)
Coefficient statistics:
  Matrix range     [1e+00, 1e+01]
  Objective range  [1e+00, 1e+00]
  Bounds range     [1e+00, 1e+00]
  RHS range        [1e+00, 1e+00]
Found heuristic solution: objective -0
Presolve removed 7 rows and 42 columns
Presolve time: 0.00s
Presolved: 13 rows, 31 columns, 94 nonzeros
Variable types: 0 continuous, 31 integer (30 binary)

Root relaxation: objective 7.500000e+00, 23 iterations, 0.00 seconds

    Nodes    |    Current Node    |     Objective Bounds      |     Work
 Expl Unexpl |  Obj  Depth IntInf | Incumbent    BestBd   Gap | It/Node Time

     0     0    7.50000    0    5   -0.00000    7.50000      -     -    0s
H    0     0                       5.0000000    7.50000  50.0%     -    0s
     0     0     cutoff    0         5.00000    5.99999  20.0%     -    0s

Cutting planes:
  Gomory: 1
  GUB cover: 3

Explored 0 nodes (29 simplex iterations) in 0.06 seconds
Thread count was 4 (of 4 available processors)

Solution count 2: 5 -0 
Pool objective bound 5

Optimal solution found (tolerance 1.00e-04)
Best objective 5.000000000000e+00, best bound 5.000000000000e+00, gap 0.0000%
Warning: variable name "z_mrsi 0 0 1 0" has a space
Warning: constraint name "Contrainte 1 : un marqueur max par slot 0 1" has a space
Warning: to let Gurobi read it back, use rlp format
Parameter OutputFlag unchanged
   Value: 1  Min: 0  Max: 1  Default: 1
Changed value of parameter TimeLimit to 120.0
   Prev: 1e+100  Min: 0.0  Max: 1e+100  Default: 1e+100
Parameter TimeLimit unchanged
   Value: 120.0  Min: 0.0  Max: 1e+100  Default: 1e+100
Optimize a model with 447 rows, 281809 columns and 2089647 nonzeros
Variable types: 0 continuous, 281809 integer (281799 binary)
Coefficient statistics:
  Matrix range     [1e+00, 1e+02]
  Objective range  [1e+00, 1e+00]
  Bounds range     [1e+00, 1e+00]
  RHS range        [1e+00, 1e+00]
Found heuristic solution: objective -0
Presolve removed 70 rows and 6543 columns (presolve time = 5s) ...
Presolve removed 70 rows and 6543 columns
Presolve time: 5.95s
Presolved: 377 rows, 275266 columns, 1999800 nonzeros
Variable types: 0 continuous, 275266 integer (275265 binary)

Root simplex log...

Iteration    Objective       Primal Inf.    Dual Inf.      Time
       0    3.7800000e+03   7.973438e+02   0.000000e+00      6s
    1211    3.6222114e+02   4.153854e+02   0.000000e+00     10s
    2349    2.7370264e+02   8.097030e+01   0.000000e+00     15s

    2879    2.7229630e+02   0.000000e+00   0.000000e+00     20s

Root relaxation: objective 2.722963e+02, 2879 iterations, 13.29 seconds
Total elapsed time = 28.67s

Gurobi 7.0.1 (win64, Python) logging started 04/18/17 18:28:10


Gurobi 7.0.1 (win64, Python) logging started 04/20/17 21:14:39


Gurobi 7.0.1 (win64, Python) logging started 04/20/17 22:35:50


Gurobi 7.0.1 (win64, Python) logging started 04/21/17 19:16:41


Gurobi 7.0.1 (win64, Python) logging started 04/21/17 19:25:02


Gurobi 7.0.1 (win64, Python) logging started 04/21/17 19:53:10


Gurobi 7.0.1 (win64, Python) logging started 04/21/17 20:04:45


Gurobi 7.0.1 (win64, Python) logging started 04/21/17 20:21:44


Gurobi 7.0.1 (win64, Python) logging started 04/22/17 13:08:16


Gurobi 7.0.1 (win64, Python) logging started 04/22/17 18:24:25


Gurobi 7.0.1 (win64, Python) logging started 04/22/17 19:55:48


Gurobi 7.0.1 (win64, Python) logging started 04/22/17 20:27:12


Gurobi 7.0.1 (win64, Python) logging started 04/23/17 13:06:16


Gurobi 7.0.1 (win64, Python) logging started 04/23/17 19:09:29


Gurobi 7.0.2 (win64, Python) logging started 04/24/17 17:53:06


Gurobi 7.0.2 (win64, Python) logging started 04/24/17 23:42:34


Gurobi 7.0.2 (win64, Python) logging started 04/25/17 14:07:14


Gurobi 7.0.2 (win64, Python) logging started 04/26/17 19:42:52

